#######################
Slurm job id: 17497813_238
Running on machine: p47
Running cmd: /nfs/shared/static-builds/gurobi1202 SOFTMEMLIMIT=125 MIPFocus=1 Presolve=2 TimeLimit=500 seed=17 /nfs/models/miplib2010/k16x240.mps.bz2
#######################
Set parameter TimeLimit to value 500
Set parameter SoftMemLimit to value 125
Set parameter MIPFocus to value 1
Set parameter LogFile to value 1202-MIPFocus1-Presolve2-TimeLimit500-k16x240-7.log
Set parameter Presolve to value 2
Set parameter Seed to value 17
Using license file /opt/gurobi/gurobi.lic

Gurobi Optimizer version 12.0.2 build v12.0.2rc0 (linux64 - "Ubuntu 22.04.4 LTS")
Copyright (c) 2025, Gurobi Optimization, LLC

Read MPS format model from file /nfs/models/miplib2010/k16x240.mps.bz2
Reading time = 0.00 seconds
k16x240: 256 rows, 480 columns, 960 nonzeros

Using Gurobi shared library /nfs/shared/static-builds/gurobi1202

CPU model: Intel(R) Xeon(R) E-2388G CPU @ 3.20GHz, instruction set [SSE2|AVX|AVX2|AVX512]
Thread count: 8 physical cores, 16 logical processors, using up to 16 threads

Non-default parameters:
TimeLimit  500
SoftMemLimit  125
MIPFocus  1
Presolve  2
Seed  17

Optimize a model with 256 rows, 480 columns and 960 nonzeros
Model fingerprint: 0x4e80885f
Variable types: 240 continuous, 240 integer (240 binary)
Coefficient statistics:
  Matrix range     [1e+00, 1e+03]
  Objective range  [1e+00, 1e+03]
  Bounds range     [1e+00, 1e+03]
  RHS range        [4e+00, 4e+02]
Found heuristic solution: objective 21882.000000
Presolve time: 0.00s
Presolved: 256 rows, 480 columns, 960 nonzeros
Variable types: 240 continuous, 240 integer (240 binary)
Root relaxation presolve removed 241 rows and 240 columns
Root relaxation presolved: 15 rows, 240 columns, 450 nonzeros


Root relaxation: objective 2.769838e+03, 16 iterations, 0.00 seconds (0.00 work units)

    Nodes    |    Current Node    |     Objective Bounds      |     Work
 Expl Unexpl |  Obj  Depth IntInf | Incumbent    BestBd   Gap | It/Node Time

     0     0 2769.83800    0   14 21882.0000 2769.83800  87.3%     -    0s
H    0     0                    11359.000000 2769.83800  75.6%     -    0s
H    0     0                    11262.000000 2769.83800  75.4%     -    0s
H    0     0                    11199.000000 8083.82021  27.8%     -    0s
H    0     0                    11140.000000 8083.82021  27.4%     -    0s
     0     0 8083.82021    0   25 11140.0000 8083.82021  27.4%     -    0s
H    0     0                    10991.000000 8083.82021  26.5%     -    0s
H    0     0                    10916.000000 8083.82021  25.9%     -    0s
     0     0 8084.69631    0   26 10916.0000 8084.69631  25.9%     -    0s
     0     0 8528.16906    0   24 10916.0000 8528.16906  21.9%     -    0s
     0     0 8539.52379    0   32 10916.0000 8539.52379  21.8%     -    0s
     0     0 8548.03675    0   29 10916.0000 8548.03675  21.7%     -    0s
     0     0 8707.77726    0   27 10916.0000 8707.77726  20.2%     -    0s
H    0     0                    10877.000000 8707.77726  19.9%     -    0s
H    0     0                    10823.000000 8707.77726  19.5%     -    0s
H    0     0                    10759.000000 8707.77726  19.1%     -    0s
     0     0 8758.83647    0   38 10759.0000 8758.83647  18.6%     -    0s
     0     0 8787.37559    0   34 10759.0000 8787.37559  18.3%     -    0s
     0     0 8802.12763    0   31 10759.0000 8802.12763  18.2%     -    0s
     0     0 8805.11325    0   34 10759.0000 8805.11325  18.2%     -    0s
     0     0 8889.10477    0   29 10759.0000 8889.10477  17.4%     -    0s
     0     0 8895.66094    0   30 10759.0000 8895.66094  17.3%     -    0s
     0     0 8898.71766    0   32 10759.0000 8898.71766  17.3%     -    0s
     0     0 8899.71396    0   40 10759.0000 8899.71396  17.3%     -    0s
     0     0 8899.97911    0   33 10759.0000 8899.97911  17.3%     -    0s
     0     0 8995.26895    0   38 10759.0000 8995.26895  16.4%     -    0s
     0     2 8995.76853    0   38 10759.0000 8995.76853  16.4%     -    0s
H    4     8                    10674.000000 9015.73679  15.5%  32.0    0s
 31862 15030 10265.4150   25   15 10674.0000 9900.09309  7.25%  18.7    5s
 82486 33729     cutoff   54      10674.0000 10026.9141  6.06%  18.2   10s
 135730 48805 10167.3126   35    9 10674.0000 10099.7734  5.38%  17.8   15s
 188214 61667 10255.5387   30   32 10674.0000 10147.2934  4.93%  17.3   20s
 241668 72009 10245.6917   25    9 10674.0000 10187.7053  4.56%  17.0   25s
 292214 79315 10461.4747   49    8 10674.0000 10220.9857  4.24%  17.1   30s
 346402 85183     cutoff   39      10674.0000 10252.4119  3.95%  16.9   35s
 404555 88726 10616.2813   38    7 10674.0000 10284.5147  3.65%  16.7   40s
 461427 89455     cutoff   41      10674.0000 10314.1090  3.37%  16.5   45s
 514741 87781 10612.6923   38    6 10674.0000 10341.8964  3.11%  16.3   50s
 571615 82687     cutoff   44      10674.0000 10372.1471  2.83%  16.2   55s
 634451 72879     cutoff   40      10674.0000 10407.9760  2.49%  16.0   60s
 687847 58590     cutoff   42      10674.0000 10444.4235  2.15%  16.0   65s
 748328 32819     cutoff   42      10674.0000 10502.7864  1.60%  15.9   70s

Cutting planes:
  Gomory: 5
  Lift-and-project: 16
  Cover: 9
  Implied bound: 3
  Dual implied bound: 47
  MIR: 127
  Flow cover: 252
  Flow path: 46
  Inf proof: 3
  Network: 62
  Relax-and-lift: 6

Explored 795483 nodes (12343936 simplex iterations) in 73.33 seconds (81.99 work units)
Thread count was 16 (of 16 available processors)

Solution count 10: 10674 10759 10823 ... 11359

Optimal solution found (tolerance 1.00e-04)
Best objective 1.067400000000e+04, best bound 1.067400000000e+04, gap 0.0000%
